branch-and-cut/resultados/I080/i080-203.sol
4599
26
6 15
78 68
13 36
62 32
7 32
57 54
10 9
62 68
10 39
62 16
64 68
8 39
32 36
5 55
78 27
12 27
2 62
11 16
1 78
14 54
3 57
62 39
55 27
57 55
1 4
6 64
